1000
[150,152,153,154,155,156,158,159,160,162,163,164,165,166,167,168,169,170,171,172,173,175,176,177,179,180,181,182,183,184,185,186,187,188,190,191,192,193,194,195,196,197,198,199,200]
[1,1,4,1,5,4,2,3,5,1,2,3,2,1,2,2,5,2,3,2,2,1,2,6,6,5,2,3,3,1,5,4,7,1,1,4,3,1,3,2,1,1,1,2,2]
